db/data/21027679718350944928888321363260232223.z3.out
-------------------
2500.116963397
